191
0 94 97 46 186 18 105 93 147 144 
140 187 59 103 179 162 160 189 133 86 
61 151 85 47 100 54 29 71 124 40 
139 161 15 119 56 113 158 178 123 65 
181 6 99 174 9 17 78 63 142 11 
28 50 12 33 83 73 120 185 92 125 
76 1 43 96 148 163 146 184 101 175 
153 69 31 75 114 42 102 95 117 128 
182 177 98 143 170 81 34 180 115 134 
82 108 72 2 21 58 172 5 26 190 
77 22 36 167 155 118 67 70 164 126 
132 157 138 66 173 136 116 24 131 130 
154 8 52 156 3 107 45 32 150 88 
35 137 90 51 169 74 7 57 19 23 
53 171 38 91 149 106 129 48 16 122 
27 62 145 80 10 159 37 168 127 166 
176 109 55 4 183 25 165 20 152 188 
64 79 135 111 112 14 60 141 49 41 
68 44 30 121 39 84 110 87 89 13 
104 
